
;this file is automatically generated: Sun Oct 25 10:43:48 CST 2020

;declarations generated

(declare-fun oclExcludes ( Int Int) Bool)
(declare-fun class9_Class9BoolAttr0 ( Int) Bool)
(declare-fun class9_Class9BoolAttr1 ( Int) Bool)
(declare-fun Cardinality ( Int) Int)
(declare-fun type_80e2d953_782d_47af_bff5_46dae874d131_Class2 ( Int) Bool)
(declare-fun type_80e2d953_782d_47af_bff5_46dae874d131_Class9 ( Int) Bool)
(declare-fun type_80e2d953_782d_47af_bff5_46dae874d131_Class19 ( Int) Bool)
(declare-fun type_80e2d953_782d_47af_bff5_46dae874d131_Class18 ( Int) Bool)
(declare-fun type_80e2d953_782d_47af_bff5_46dae874d131_Class14 ( Int) Bool)
(declare-fun oclSelect ( Int Bool) Int)
(declare-fun class9_Class9IntAttr2 ( Int) Int)
(declare-fun Enum0 ( Int) Int)
(declare-fun Enum1 ( Int) Int)
(declare-fun obj_735d3bd5_1076_483d_b2f1_23d4f1dfd4ed ( Int) Int)
(declare-fun container_ ( Int) Int)
(declare-fun oclIncludes ( Int Int) Bool)
(declare-fun ObjAt ( Int Int) Int)

;formula(s) generated
(assert (forall ((p Int)) (=> ( type_80e2d953_782d_47af_bff5_46dae874d131_Class9 p )  (and (>= ( Enum1 ( obj_735d3bd5_1076_483d_b2f1_23d4f1dfd4ed p )  )  0) (<= ( Enum1 ( obj_735d3bd5_1076_483d_b2f1_23d4f1dfd4ed p )  )  6)))))
(assert (! (or (forall ((v Int)) (=> (and (and (and (and ( type_80e2d953_782d_47af_bff5_46dae874d131_Class9 v )  ( type_80e2d953_782d_47af_bff5_46dae874d131_Class14 v ) ) ( type_80e2d953_782d_47af_bff5_46dae874d131_Class18 v ) ) ( type_80e2d953_782d_47af_bff5_46dae874d131_Class19 v ) ) ( type_80e2d953_782d_47af_bff5_46dae874d131_Class2 v ) ) (or (> ( class9_Class9IntAttr2 ( obj_735d3bd5_1076_483d_b2f1_23d4f1dfd4ed v )  )  7) (and (forall ((v Int)) (=> (and (and (and (and ( type_80e2d953_782d_47af_bff5_46dae874d131_Class9 v )  ( type_80e2d953_782d_47af_bff5_46dae874d131_Class14 v ) ) ( type_80e2d953_782d_47af_bff5_46dae874d131_Class18 v ) ) ( type_80e2d953_782d_47af_bff5_46dae874d131_Class19 v ) ) ( type_80e2d953_782d_47af_bff5_46dae874d131_Class2 v ) ) ( class9_Class9BoolAttr1 ( obj_735d3bd5_1076_483d_b2f1_23d4f1dfd4ed v )  ) )) (forall ((v Int)) (=> (and (and (and (and ( type_80e2d953_782d_47af_bff5_46dae874d131_Class9 v )  ( type_80e2d953_782d_47af_bff5_46dae874d131_Class14 v ) ) ( type_80e2d953_782d_47af_bff5_46dae874d131_Class18 v ) ) ( type_80e2d953_782d_47af_bff5_46dae874d131_Class19 v ) ) ( type_80e2d953_782d_47af_bff5_46dae874d131_Class2 v ) ) ( class9_Class9BoolAttr0 ( obj_735d3bd5_1076_483d_b2f1_23d4f1dfd4ed v )  ) )))))) (forall ((v Int)) (=> (and (and (and (and ( type_80e2d953_782d_47af_bff5_46dae874d131_Class9 v )  ( type_80e2d953_782d_47af_bff5_46dae874d131_Class14 v ) ) ( type_80e2d953_782d_47af_bff5_46dae874d131_Class18 v ) ) ( type_80e2d953_782d_47af_bff5_46dae874d131_Class19 v ) ) ( type_80e2d953_782d_47af_bff5_46dae874d131_Class2 v ) ) (not (= ( Enum1 ( obj_735d3bd5_1076_483d_b2f1_23d4f1dfd4ed v )  )  0) )))):named l0))
(assert (exists ((o Int)) (and (and (and (and ( type_80e2d953_782d_47af_bff5_46dae874d131_Class9 ( obj_735d3bd5_1076_483d_b2f1_23d4f1dfd4ed o )  )  ( type_80e2d953_782d_47af_bff5_46dae874d131_Class14 ( obj_735d3bd5_1076_483d_b2f1_23d4f1dfd4ed o )  ) ) ( type_80e2d953_782d_47af_bff5_46dae874d131_Class18 ( obj_735d3bd5_1076_483d_b2f1_23d4f1dfd4ed o )  ) ) ( type_80e2d953_782d_47af_bff5_46dae874d131_Class19 ( obj_735d3bd5_1076_483d_b2f1_23d4f1dfd4ed o )  ) ) ( type_80e2d953_782d_47af_bff5_46dae874d131_Class2 ( obj_735d3bd5_1076_483d_b2f1_23d4f1dfd4ed o )  ) )))

 ;end of formula 